/*********************************************
 * OPL 12.7.0.0 Data
 * Author: Hp
 * Creation Date: 08 avril. 2022 at 11:17:51
 *********************************************/
n = 19;
D = [2,16,9,8,10,6,2,2,9,5,3,2,1,7,4,3,9,1];
Arcs = 	{
			<1,2>,<2,3>,
			<2,4>,<3,5>,
			<4,6>,<4,7>,
			<4,9>,<4,10>,
			<4,15>,<4,6>,
			<5,6>,<6,8>,
			<6,9>,<6,11>,
			<4,6>,<7,13>,
			<8,16>,<9,12>,
			<11,16>,<12,17>,
			<14,15>,<14,16>,
			<10,19>,<13,19>,
			<15,19>,<16,19>,
			<18,19>
		};